(declare-fun temp914_1 () (_ BitVec 64))
(declare-fun temp914_2 () (_ BitVec 64))
(declare-fun var87778 () (_ BitVec 64))
(declare-fun k!0 () Bool)
(declare-fun ARGNAME_input_NAMEEND_DIM () (_ BitVec 64))
(declare-fun temp914_3 () (_ BitVec 64))
(declare-fun var3216467 () (_ BitVec 64))
(declare-fun temp914_4 () (_ BitVec 64))
(declare-fun temp914_5 () (_ BitVec 64))
(declare-fun var3814205 () (_ BitVec 64))
(declare-fun temp914_6 () (_ BitVec 64))
(declare-fun var3879741 () (_ BitVec 64))
(declare-fun temp914_7 () (_ BitVec 64))
(declare-fun var4141885 () (_ BitVec 64))
(declare-fun temp914_8 () (_ BitVec 64))
(declare-fun var4207421 () (_ BitVec 64))
(declare-fun temp914_9 () (_ BitVec 64))
(declare-fun ARGNAME_keepdim_NAMEEND () (_ BitVec 64))
(declare-fun temp914_10 () (_ BitVec 64))
(declare-fun var4338493 () (_ BitVec 64))
(declare-fun temp914_12 () (_ BitVec 64))
(declare-fun temp914_11 () (_ BitVec 64))
(declare-fun temp914_13 () (_ BitVec 64))
(declare-fun var4404029 () (_ BitVec 64))
(assert (= temp914_1 #x0000000000000002))
(assert (= var87778
   (ite (= ARGNAME_input_NAMEEND_DIM temp914_1)
        #x0000000000000001
        #x0000000000000000)))
(assert (= temp914_2 #x0000000000000001))
(assert (= var87778 temp914_2))
(assert (= temp914_3 #x0000000000000002))
(assert (= var3216467
   (ite (bvslt ARGNAME_input_NAMEEND_DIM temp914_3)
        #x0000000000000001
        #x0000000000000000)))
(assert (= temp914_4 #x0000000000000000))
(assert (= var3216467 temp914_4))
(assert (= temp914_5 #x0000000000000000))
(assert (= var3814205 temp914_5))
(assert (= temp914_6 #x0000000000000001))
(assert (= var3879741 temp914_6))
(assert (= temp914_7 #x0000000000000000))
(assert (= var4141885 temp914_7))
(assert (= temp914_8 #x0000000000000001))
(assert (= var4207421 temp914_8))
(assert (= temp914_9 #x0000000000000001))
(assert (= ARGNAME_keepdim_NAMEEND temp914_9))
(assert (= temp914_10 #x0000000000000000))
(assert (= var4338493 temp914_10))
(assert (= temp914_12 #x0000000000000001))
(assert (= temp914_11 temp914_12))
(assert (= temp914_13 #x0000000000000001))
(assert (= var4404029 temp914_13))
(model-add temp914_1 () (_ BitVec 64) #x0000000000000002)
(model-add temp914_2 () (_ BitVec 64) #x0000000000000001)
(model-add var87778 () (_ BitVec 64) #x0000000000000001)
(model-del k!0)
(model-add ARGNAME_input_NAMEEND_DIM
           ()
           (_ BitVec 64)
           (ite k!0 #x0000000000000002 (bvnot #x0000000000000002)))




